Minimize

x_0 + x_1 + x_2 + x_3 + x_4 + x_5 + x_6 + x_7 + x_8 + x_9


Subject To


z0: x_0 - x_1 - y$_0 = 0
z1: y$_1 >= 1
z2: x_0 - x_2 - y$_2 = 0
z3: y$_3 >= 1
z4: x_0 - x_3 - y$_4 = 0
z5: y$_5 >= 1
z6: x_0 - x_4 - y$_6 = 0
z7: y$_7 >= 1
z8: x_0 - x_5 - y$_8 = 0
z9: y$_9 >= 1
z10: x_0 - x_6 - y$_10 = 0
z11: y$_11 >= 1
z12: x_0 - x_7 - y$_12 = 0
z13: y$_13 >= 1
z14: x_0 - x_8 - y$_14 = 0
z15: y$_15 >= 1
z16: x_0 - x_9 - y$_16 = 0
z17: y$_17 >= 1
z18: x_1 - x_2 - y$_18 = 0
z19: y$_19 >= 1
z20: x_1 - x_3 - y$_20 = 0
z21: y$_21 >= 1
z22: x_1 - x_4 - y$_22 = 0
z23: y$_23 >= 1
z24: x_1 - x_5 - y$_24 = 0
z25: y$_25 >= 1
z26: x_1 - x_6 - y$_26 = 0
z27: y$_27 >= 1
z28: x_1 - x_7 - y$_28 = 0
z29: y$_29 >= 1
z30: x_1 - x_8 - y$_30 = 0
z31: y$_31 >= 1
z32: x_1 - x_9 - y$_32 = 0
z33: y$_33 >= 1
z34: x_2 - x_3 - y$_34 = 0
z35: y$_35 >= 1
z36: x_2 - x_4 - y$_36 = 0
z37: y$_37 >= 1
z38: x_2 - x_5 - y$_38 = 0
z39: y$_39 >= 1
z40: x_2 - x_6 - y$_40 = 0
z41: y$_41 >= 1
z42: x_2 - x_7 - y$_42 = 0
z43: y$_43 >= 1
z44: x_2 - x_8 - y$_44 = 0
z45: y$_45 >= 1
z46: x_2 - x_9 - y$_46 = 0
z47: y$_47 >= 1
z48: x_3 - x_4 - y$_48 = 0
z49: y$_49 >= 1
z50: x_3 - x_5 - y$_50 = 0
z51: y$_51 >= 1
z52: x_3 - x_6 - y$_52 = 0
z53: y$_53 >= 1
z54: x_3 - x_7 - y$_54 = 0
z55: y$_55 >= 1
z56: x_3 - x_8 - y$_56 = 0
z57: y$_57 >= 1
z58: x_3 - x_9 - y$_58 = 0
z59: y$_59 >= 1
z60: x_4 - x_5 - y$_60 = 0
z61: y$_61 >= 1
z62: x_4 - x_6 - y$_62 = 0
z63: y$_63 >= 1
z64: x_4 - x_7 - y$_64 = 0
z65: y$_65 >= 1
z66: x_4 - x_8 - y$_66 = 0
z67: y$_67 >= 1
z68: x_4 - x_9 - y$_68 = 0
z69: y$_69 >= 1
z70: x_5 - x_6 - y$_70 = 0
z71: y$_71 >= 1
z72: x_5 - x_7 - y$_72 = 0
z73: y$_73 >= 1
z74: x_5 - x_8 - y$_74 = 0
z75: y$_75 >= 1
z76: x_5 - x_9 - y$_76 = 0
z77: y$_77 >= 1
z78: x_6 - x_7 - y$_78 = 0
z79: y$_79 >= 1
z80: x_6 - x_8 - y$_80 = 0
z81: y$_81 >= 1
z82: x_6 - x_9 - y$_82 = 0
z83: y$_83 >= 1
z84: x_7 - x_8 - y$_84 = 0
z85: y$_85 >= 1
z86: x_7 - x_9 - y$_86 = 0
z87: y$_87 >= 1
z88: x_8 - x_9 - y$_88 = 0
z89: y$_89 >= 1
z90: x_0  - x_1 - y$_90 = 1
z91: y$_91 >= 1
z92: x_0  - x_2 - y$_92 = 2
z93: y$_93 >= 1
z94: x_0  - x_3 - y$_94 = 3
z95: y$_95 >= 1
z96: x_0  - x_4 - y$_96 = 4
z97: y$_97 >= 1
z98: x_0  - x_5 - y$_98 = 5
z99: y$_99 >= 1
z100: x_0  - x_6 - y$_100 = 6
z101: y$_101 >= 1
z102: x_0  - x_7 - y$_102 = 7
z103: y$_103 >= 1
z104: x_0  - x_8 - y$_104 = 8
z105: y$_105 >= 1
z106: x_0  - x_9 - y$_106 = 9
z107: y$_107 >= 1
z108: x_1  - x_2 - y$_108 = 1
z109: y$_109 >= 1
z110: x_1  - x_3 - y$_110 = 2
z111: y$_111 >= 1
z112: x_1  - x_4 - y$_112 = 3
z113: y$_113 >= 1
z114: x_1  - x_5 - y$_114 = 4
z115: y$_115 >= 1
z116: x_1  - x_6 - y$_116 = 5
z117: y$_117 >= 1
z118: x_1  - x_7 - y$_118 = 6
z119: y$_119 >= 1
z120: x_1  - x_8 - y$_120 = 7
z121: y$_121 >= 1
z122: x_1  - x_9 - y$_122 = 8
z123: y$_123 >= 1
z124: x_2  - x_3 - y$_124 = 1
z125: y$_125 >= 1
z126: x_2  - x_4 - y$_126 = 2
z127: y$_127 >= 1
z128: x_2  - x_5 - y$_128 = 3
z129: y$_129 >= 1
z130: x_2  - x_6 - y$_130 = 4
z131: y$_131 >= 1
z132: x_2  - x_7 - y$_132 = 5
z133: y$_133 >= 1
z134: x_2  - x_8 - y$_134 = 6
z135: y$_135 >= 1
z136: x_2  - x_9 - y$_136 = 7
z137: y$_137 >= 1
z138: x_3  - x_4 - y$_138 = 1
z139: y$_139 >= 1
z140: x_3  - x_5 - y$_140 = 2
z141: y$_141 >= 1
z142: x_3  - x_6 - y$_142 = 3
z143: y$_143 >= 1
z144: x_3  - x_7 - y$_144 = 4
z145: y$_145 >= 1
z146: x_3  - x_8 - y$_146 = 5
z147: y$_147 >= 1
z148: x_3  - x_9 - y$_148 = 6
z149: y$_149 >= 1
z150: x_4  - x_5 - y$_150 = 1
z151: y$_151 >= 1
z152: x_4  - x_6 - y$_152 = 2
z153: y$_153 >= 1
z154: x_4  - x_7 - y$_154 = 3
z155: y$_155 >= 1
z156: x_4  - x_8 - y$_156 = 4
z157: y$_157 >= 1
z158: x_4  - x_9 - y$_158 = 5
z159: y$_159 >= 1
z160: x_5  - x_6 - y$_160 = 1
z161: y$_161 >= 1
z162: x_5  - x_7 - y$_162 = 2
z163: y$_163 >= 1
z164: x_5  - x_8 - y$_164 = 3
z165: y$_165 >= 1
z166: x_5  - x_9 - y$_166 = 4
z167: y$_167 >= 1
z168: x_6  - x_7 - y$_168 = 1
z169: y$_169 >= 1
z170: x_6  - x_8 - y$_170 = 2
z171: y$_171 >= 1
z172: x_6  - x_9 - y$_172 = 3
z173: y$_173 >= 1
z174: x_7  - x_8 - y$_174 = 1
z175: y$_175 >= 1
z176: x_7  - x_9 - y$_176 = 2
z177: y$_177 >= 1
z178: x_8  - x_9 - y$_178 = 1
z179: y$_179 >= 1
z180: x_0  - x_1 - y$_180 = -1
z181: y$_181 >= 1
z182: x_0  - x_2 - y$_182 = -2
z183: y$_183 >= 1
z184: x_0  - x_3 - y$_184 = -3
z185: y$_185 >= 1
z186: x_0  - x_4 - y$_186 = -4
z187: y$_187 >= 1
z188: x_0  - x_5 - y$_188 = -5
z189: y$_189 >= 1
z190: x_0  - x_6 - y$_190 = -6
z191: y$_191 >= 1
z192: x_0  - x_7 - y$_192 = -7
z193: y$_193 >= 1
z194: x_0  - x_8 - y$_194 = -8
z195: y$_195 >= 1
z196: x_0  - x_9 - y$_196 = -9
z197: y$_197 >= 1
z198: x_1  - x_2 - y$_198 = -1
z199: y$_199 >= 1
z200: x_1  - x_3 - y$_200 = -2
z201: y$_201 >= 1
z202: x_1  - x_4 - y$_202 = -3
z203: y$_203 >= 1
z204: x_1  - x_5 - y$_204 = -4
z205: y$_205 >= 1
z206: x_1  - x_6 - y$_206 = -5
z207: y$_207 >= 1
z208: x_1  - x_7 - y$_208 = -6
z209: y$_209 >= 1
z210: x_1  - x_8 - y$_210 = -7
z211: y$_211 >= 1
z212: x_1  - x_9 - y$_212 = -8
z213: y$_213 >= 1
z214: x_2  - x_3 - y$_214 = -1
z215: y$_215 >= 1
z216: x_2  - x_4 - y$_216 = -2
z217: y$_217 >= 1
z218: x_2  - x_5 - y$_218 = -3
z219: y$_219 >= 1
z220: x_2  - x_6 - y$_220 = -4
z221: y$_221 >= 1
z222: x_2  - x_7 - y$_222 = -5
z223: y$_223 >= 1
z224: x_2  - x_8 - y$_224 = -6
z225: y$_225 >= 1
z226: x_2  - x_9 - y$_226 = -7
z227: y$_227 >= 1
z228: x_3  - x_4 - y$_228 = -1
z229: y$_229 >= 1
z230: x_3  - x_5 - y$_230 = -2
z231: y$_231 >= 1
z232: x_3  - x_6 - y$_232 = -3
z233: y$_233 >= 1
z234: x_3  - x_7 - y$_234 = -4
z235: y$_235 >= 1
z236: x_3  - x_8 - y$_236 = -5
z237: y$_237 >= 1
z238: x_3  - x_9 - y$_238 = -6
z239: y$_239 >= 1
z240: x_4  - x_5 - y$_240 = -1
z241: y$_241 >= 1
z242: x_4  - x_6 - y$_242 = -2
z243: y$_243 >= 1
z244: x_4  - x_7 - y$_244 = -3
z245: y$_245 >= 1
z246: x_4  - x_8 - y$_246 = -4
z247: y$_247 >= 1
z248: x_4  - x_9 - y$_248 = -5
z249: y$_249 >= 1
z250: x_5  - x_6 - y$_250 = -1
z251: y$_251 >= 1
z252: x_5  - x_7 - y$_252 = -2
z253: y$_253 >= 1
z254: x_5  - x_8 - y$_254 = -3
z255: y$_255 >= 1
z256: x_5  - x_9 - y$_256 = -4
z257: y$_257 >= 1
z258: x_6  - x_7 - y$_258 = -1
z259: y$_259 >= 1
z260: x_6  - x_8 - y$_260 = -2
z261: y$_261 >= 1
z262: x_6  - x_9 - y$_262 = -3
z263: y$_263 >= 1
z264: x_7  - x_8 - y$_264 = -1
z265: y$_265 >= 1
z266: x_7  - x_9 - y$_266 = -2
z267: y$_267 >= 1
z268: x_8  - x_9 - y$_268 = -1
z269: y$_269 >= 1


Bounds

x_0 <= 9
x_1 <= 9
x_2 <= 9
x_3 <= 9
x_4 <= 9
x_5 <= 9
x_6 <= 9
x_7 <= 9
x_8 <= 9
x_9 <= 9
y$_0 free
y$_2 free
y$_4 free
y$_6 free
y$_8 free
y$_10 free
y$_12 free
y$_14 free
y$_16 free
y$_18 free
y$_20 free
y$_22 free
y$_24 free
y$_26 free
y$_28 free
y$_30 free
y$_32 free
y$_34 free
y$_36 free
y$_38 free
y$_40 free
y$_42 free
y$_44 free
y$_46 free
y$_48 free
y$_50 free
y$_52 free
y$_54 free
y$_56 free
y$_58 free
y$_60 free
y$_62 free
y$_64 free
y$_66 free
y$_68 free
y$_70 free
y$_72 free
y$_74 free
y$_76 free
y$_78 free
y$_80 free
y$_82 free
y$_84 free
y$_86 free
y$_88 free
y$_90 free
y$_92 free
y$_94 free
y$_96 free
y$_98 free
y$_100 free
y$_102 free
y$_104 free
y$_106 free
y$_108 free
y$_110 free
y$_112 free
y$_114 free
y$_116 free
y$_118 free
y$_120 free
y$_122 free
y$_124 free
y$_126 free
y$_128 free
y$_130 free
y$_132 free
y$_134 free
y$_136 free
y$_138 free
y$_140 free
y$_142 free
y$_144 free
y$_146 free
y$_148 free
y$_150 free
y$_152 free
y$_154 free
y$_156 free
y$_158 free
y$_160 free
y$_162 free
y$_164 free
y$_166 free
y$_168 free
y$_170 free
y$_172 free
y$_174 free
y$_176 free
y$_178 free
y$_180 free
y$_182 free
y$_184 free
y$_186 free
y$_188 free
y$_190 free
y$_192 free
y$_194 free
y$_196 free
y$_198 free
y$_200 free
y$_202 free
y$_204 free
y$_206 free
y$_208 free
y$_210 free
y$_212 free
y$_214 free
y$_216 free
y$_218 free
y$_220 free
y$_222 free
y$_224 free
y$_226 free
y$_228 free
y$_230 free
y$_232 free
y$_234 free
y$_236 free
y$_238 free
y$_240 free
y$_242 free
y$_244 free
y$_246 free
y$_248 free
y$_250 free
y$_252 free
y$_254 free
y$_256 free
y$_258 free
y$_260 free
y$_262 free
y$_264 free
y$_266 free
y$_268 free



General

 x_0 x_1 x_2 x_3 x_4 x_5 x_6 x_7 x_8 x_9



General Constraints


gc0: y$_1 =  ABS ( y$_0 )
gc1: y$_3 =  ABS ( y$_2 )
gc2: y$_5 =  ABS ( y$_4 )
gc3: y$_7 =  ABS ( y$_6 )
gc4: y$_9 =  ABS ( y$_8 )
gc5: y$_11 =  ABS ( y$_10 )
gc6: y$_13 =  ABS ( y$_12 )
gc7: y$_15 =  ABS ( y$_14 )
gc8: y$_17 =  ABS ( y$_16 )
gc9: y$_19 =  ABS ( y$_18 )
gc10: y$_21 =  ABS ( y$_20 )
gc11: y$_23 =  ABS ( y$_22 )
gc12: y$_25 =  ABS ( y$_24 )
gc13: y$_27 =  ABS ( y$_26 )
gc14: y$_29 =  ABS ( y$_28 )
gc15: y$_31 =  ABS ( y$_30 )
gc16: y$_33 =  ABS ( y$_32 )
gc17: y$_35 =  ABS ( y$_34 )
gc18: y$_37 =  ABS ( y$_36 )
gc19: y$_39 =  ABS ( y$_38 )
gc20: y$_41 =  ABS ( y$_40 )
gc21: y$_43 =  ABS ( y$_42 )
gc22: y$_45 =  ABS ( y$_44 )
gc23: y$_47 =  ABS ( y$_46 )
gc24: y$_49 =  ABS ( y$_48 )
gc25: y$_51 =  ABS ( y$_50 )
gc26: y$_53 =  ABS ( y$_52 )
gc27: y$_55 =  ABS ( y$_54 )
gc28: y$_57 =  ABS ( y$_56 )
gc29: y$_59 =  ABS ( y$_58 )
gc30: y$_61 =  ABS ( y$_60 )
gc31: y$_63 =  ABS ( y$_62 )
gc32: y$_65 =  ABS ( y$_64 )
gc33: y$_67 =  ABS ( y$_66 )
gc34: y$_69 =  ABS ( y$_68 )
gc35: y$_71 =  ABS ( y$_70 )
gc36: y$_73 =  ABS ( y$_72 )
gc37: y$_75 =  ABS ( y$_74 )
gc38: y$_77 =  ABS ( y$_76 )
gc39: y$_79 =  ABS ( y$_78 )
gc40: y$_81 =  ABS ( y$_80 )
gc41: y$_83 =  ABS ( y$_82 )
gc42: y$_85 =  ABS ( y$_84 )
gc43: y$_87 =  ABS ( y$_86 )
gc44: y$_89 =  ABS ( y$_88 )
gc45: y$_91 =  ABS ( y$_90 )
gc46: y$_93 =  ABS ( y$_92 )
gc47: y$_95 =  ABS ( y$_94 )
gc48: y$_97 =  ABS ( y$_96 )
gc49: y$_99 =  ABS ( y$_98 )
gc50: y$_101 =  ABS ( y$_100 )
gc51: y$_103 =  ABS ( y$_102 )
gc52: y$_105 =  ABS ( y$_104 )
gc53: y$_107 =  ABS ( y$_106 )
gc54: y$_109 =  ABS ( y$_108 )
gc55: y$_111 =  ABS ( y$_110 )
gc56: y$_113 =  ABS ( y$_112 )
gc57: y$_115 =  ABS ( y$_114 )
gc58: y$_117 =  ABS ( y$_116 )
gc59: y$_119 =  ABS ( y$_118 )
gc60: y$_121 =  ABS ( y$_120 )
gc61: y$_123 =  ABS ( y$_122 )
gc62: y$_125 =  ABS ( y$_124 )
gc63: y$_127 =  ABS ( y$_126 )
gc64: y$_129 =  ABS ( y$_128 )
gc65: y$_131 =  ABS ( y$_130 )
gc66: y$_133 =  ABS ( y$_132 )
gc67: y$_135 =  ABS ( y$_134 )
gc68: y$_137 =  ABS ( y$_136 )
gc69: y$_139 =  ABS ( y$_138 )
gc70: y$_141 =  ABS ( y$_140 )
gc71: y$_143 =  ABS ( y$_142 )
gc72: y$_145 =  ABS ( y$_144 )
gc73: y$_147 =  ABS ( y$_146 )
gc74: y$_149 =  ABS ( y$_148 )
gc75: y$_151 =  ABS ( y$_150 )
gc76: y$_153 =  ABS ( y$_152 )
gc77: y$_155 =  ABS ( y$_154 )
gc78: y$_157 =  ABS ( y$_156 )
gc79: y$_159 =  ABS ( y$_158 )
gc80: y$_161 =  ABS ( y$_160 )
gc81: y$_163 =  ABS ( y$_162 )
gc82: y$_165 =  ABS ( y$_164 )
gc83: y$_167 =  ABS ( y$_166 )
gc84: y$_169 =  ABS ( y$_168 )
gc85: y$_171 =  ABS ( y$_170 )
gc86: y$_173 =  ABS ( y$_172 )
gc87: y$_175 =  ABS ( y$_174 )
gc88: y$_177 =  ABS ( y$_176 )
gc89: y$_179 =  ABS ( y$_178 )
gc90: y$_181 =  ABS ( y$_180 )
gc91: y$_183 =  ABS ( y$_182 )
gc92: y$_185 =  ABS ( y$_184 )
gc93: y$_187 =  ABS ( y$_186 )
gc94: y$_189 =  ABS ( y$_188 )
gc95: y$_191 =  ABS ( y$_190 )
gc96: y$_193 =  ABS ( y$_192 )
gc97: y$_195 =  ABS ( y$_194 )
gc98: y$_197 =  ABS ( y$_196 )
gc99: y$_199 =  ABS ( y$_198 )
gc100: y$_201 =  ABS ( y$_200 )
gc101: y$_203 =  ABS ( y$_202 )
gc102: y$_205 =  ABS ( y$_204 )
gc103: y$_207 =  ABS ( y$_206 )
gc104: y$_209 =  ABS ( y$_208 )
gc105: y$_211 =  ABS ( y$_210 )
gc106: y$_213 =  ABS ( y$_212 )
gc107: y$_215 =  ABS ( y$_214 )
gc108: y$_217 =  ABS ( y$_216 )
gc109: y$_219 =  ABS ( y$_218 )
gc110: y$_221 =  ABS ( y$_220 )
gc111: y$_223 =  ABS ( y$_222 )
gc112: y$_225 =  ABS ( y$_224 )
gc113: y$_227 =  ABS ( y$_226 )
gc114: y$_229 =  ABS ( y$_228 )
gc115: y$_231 =  ABS ( y$_230 )
gc116: y$_233 =  ABS ( y$_232 )
gc117: y$_235 =  ABS ( y$_234 )
gc118: y$_237 =  ABS ( y$_236 )
gc119: y$_239 =  ABS ( y$_238 )
gc120: y$_241 =  ABS ( y$_240 )
gc121: y$_243 =  ABS ( y$_242 )
gc122: y$_245 =  ABS ( y$_244 )
gc123: y$_247 =  ABS ( y$_246 )
gc124: y$_249 =  ABS ( y$_248 )
gc125: y$_251 =  ABS ( y$_250 )
gc126: y$_253 =  ABS ( y$_252 )
gc127: y$_255 =  ABS ( y$_254 )
gc128: y$_257 =  ABS ( y$_256 )
gc129: y$_259 =  ABS ( y$_258 )
gc130: y$_261 =  ABS ( y$_260 )
gc131: y$_263 =  ABS ( y$_262 )
gc132: y$_265 =  ABS ( y$_264 )
gc133: y$_267 =  ABS ( y$_266 )
gc134: y$_269 =  ABS ( y$_268 )

End
